(set-option :produce-models true)
(set-logic QF_UF)
(declare-fun p87() Bool)
(declare-fun p4() Bool)
(declare-fun p115() Bool)
(declare-fun p62() Bool)
(declare-fun p25() Bool)
(declare-fun p65() Bool)
(declare-fun p19() Bool)
(declare-fun p46() Bool)
(declare-fun p40() Bool)
(declare-fun p75() Bool)
(declare-fun p76() Bool)
(declare-fun p5() Bool)
(declare-fun p17() Bool)
(declare-fun p49() Bool)
(declare-fun p82() Bool)
(declare-fun p116() Bool)
(declare-fun p72() Bool)
(declare-fun p12() Bool)
(declare-fun p104() Bool)
(declare-fun p117() Bool)
(declare-fun p91() Bool)
(declare-fun p71() Bool)
(declare-fun p15() Bool)
(declare-fun p92() Bool)
(declare-fun p103() Bool)
(declare-fun p58() Bool)
(declare-fun p1() Bool)
(declare-fun p22() Bool)
(declare-fun p51() Bool)
(declare-fun p10() Bool)
(declare-fun p109() Bool)
(declare-fun p16() Bool)
(declare-fun p53() Bool)
(declare-fun p81() Bool)
(declare-fun p85() Bool)
(declare-fun p100() Bool)
(declare-fun p101() Bool)
(declare-fun p6() Bool)
(declare-fun p111() Bool)
(declare-fun p99() Bool)
(declare-fun p39() Bool)
(declare-fun p64() Bool)
(declare-fun p66() Bool)
(declare-fun p96() Bool)
(declare-fun p60() Bool)
(declare-fun p31() Bool)
(declare-fun p14() Bool)
(declare-fun p26() Bool)
(declare-fun p52() Bool)
(declare-fun p59() Bool)
(declare-fun p97() Bool)
(declare-fun p45() Bool)
(declare-fun p63() Bool)
(declare-fun p113() Bool)
(declare-fun p29() Bool)
(declare-fun p56() Bool)
(declare-fun p21() Bool)
(declare-fun p0() Bool)
(declare-fun p108() Bool)
(declare-fun p86() Bool)
(declare-fun p68() Bool)
(declare-fun p47() Bool)
(declare-fun p55() Bool)
(declare-fun p30() Bool)
(declare-fun p54() Bool)
(declare-fun p23() Bool)
(declare-fun p34() Bool)
(declare-fun p78() Bool)
(declare-fun p93() Bool)
(declare-fun p11() Bool)
(declare-fun p32() Bool)
(declare-fun p119() Bool)
(declare-fun p73() Bool)
(declare-fun p2() Bool)
(declare-fun p61() Bool)
(declare-fun p7() Bool)
(declare-fun p90() Bool)
(declare-fun p105() Bool)
(declare-fun p38() Bool)
(declare-fun p80() Bool)
(declare-fun p20() Bool)
(declare-fun p69() Bool)
(declare-fun p8() Bool)
(declare-fun p88() Bool)
(declare-fun p43() Bool)
(declare-fun p94() Bool)
(declare-fun p37() Bool)
(declare-fun p106() Bool)
(declare-fun p79() Bool)
(declare-fun p36() Bool)
(declare-fun p18() Bool)
(declare-fun p70() Bool)
(declare-fun p112() Bool)
(declare-fun p42() Bool)
(declare-fun p44() Bool)
(declare-fun p48() Bool)
(declare-fun p74() Bool)
(declare-fun p95() Bool)
(declare-fun p84() Bool)
(declare-fun p114() Bool)
(declare-fun p3() Bool)
(declare-fun p33() Bool)
(declare-fun p9() Bool)
(declare-fun p24() Bool)
(declare-fun p77() Bool)
(declare-fun p102() Bool)
(declare-fun p27() Bool)
(declare-fun p28() Bool)
(declare-fun p89() Bool)
(declare-fun p41() Bool)
(declare-fun p118() Bool)
(declare-fun p67() Bool)
(declare-fun p13() Bool)
(declare-fun p57() Bool)
(declare-fun p35() Bool)
(declare-fun p110() Bool)
(declare-fun p50() Bool)
(declare-fun p107() Bool)
(declare-fun p83() Bool)
(declare-fun p98() Bool)
(assert
(and (or p87 (not p4) (not p115)) (or (not p62) (not p25) (not p65)) (or p19 (not p46) p40) (or p75 p76 p5) (or (not p17) p49 (not p82)) (or (not p116) p72 p12) (or (not p104) (not p117) (not p91)) (or p71 (not p15) (not p92)) (or (not p103) (not p71) (not p58)) (or p72 (not p1) p22) (or (not p51) (not p10) (not p109)) (or p16 p53 (not p4)) (or p40 (not p17) (not p81)) (or p85 (not p100) p101) (or (not p6) p111 p99) (or (not p39) p64 p76) (or p82 p66 (not p96)) (or (not p60) p81 (not p31)) (or (not p14) p103 p26) (or (not p52) p52 (not p59)) (or p97 (not p104) (not p71)) (or p45 (not p63) p113) (or p81 (not p29) (not p71)) (or p56 (not p21) (not p0)) (or (not p46) (not p108) (not p86)) (or (not p51) (not p71) p68) (or (not p51) p47 p55) (or (not p59) (not p30) (not p117)) (or (not p54) (not p82) (not p49)) (or (not p1) (not p23) (not p64)) (or p34 p63 (not p71)) (or p71 p82 (not p78)) (or p93 (not p11) (not p32)) (or p97 p76 p17) (or p60 p119 (not p73)) (or (not p2) p12 p71) (or p14 p61 (not p113)) (or p116 (not p72) p7) (or (not p58) p39 (not p52)) (or p99 (not p17) p91) (or (not p65) (not p51) p75) (or (not p99) p90 p105) (or p99 p101 (not p38)) (or p91 (not p29) p40) (or (not p80) (not p38) p65) (or (not p20) (not p69) p1) (or (not p32) (not p81) (not p8)) (or p29 (not p11) p55) (or (not p54) p64 p88) (or p97 p64 (not p60)) (or (not p7) (not p43) (not p94)) (or (not p7) p7 (not p113)) (or p109 (not p80) (not p38)) (or (not p75) (not p59) p16) (or (not p37) (not p2) p106) (or (not p63) p22 (not p21)) (or (not p59) p79 p8) (or (not p115) p11 p72) (or (not p21) (not p51) (not p36)) (or p81 p109 p53) (or (not p18) p70 p79) (or (not p90) (not p12) p4) (or (not p56) (not p91) p112) (or (not p78) (not p71) (not p15)) (or p34 p42 p38) (or (not p63) (not p76) p2) (or (not p16) (not p105) p91) (or (not p73) p0 p32) (or (not p92) p45 (not p44)) (or p38 (not p48) (not p65)) (or p36 p36 (not p59)) (or (not p58) (not p48) p12) (or (not p92) (not p1) (not p97)) (or p0 p47 p12) (or p42 p117 p19) (or p68 p18 (not p59)) (or (not p51) p100 (not p71)) (or (not p38) p52 p44) (or (not p52) p49 p88) (or (not p19) p34 (not p5)) (or (not p31) (not p74) p56) (or p7 p49 p95) (or p0 p38 (not p18)) (or p31 (not p29) (not p84)) (or p56 p60 (not p47)) (or p105 (not p46) p85) (or (not p17) p97 (not p114)) (or p53 (not p2) (not p106)) (or (not p105) (not p3) p85) (or p45 (not p16) (not p97)) (or p19 (not p33) p60) (or p116 p87 (not p25)) (or p71 (not p104) p17) (or p75 (not p22) (not p85)) (or p86 p10 p9) (or (not p44) p70 (not p24)) (or (not p106) (not p91) p59) (or p77 p102 p30) (or p74 p81 (not p27)) (or (not p25) p7 p69) (or p22 p94 p109) (or (not p88) (not p37) p31) (or (not p19) (not p23) (not p54)) (or p55 (not p56) p52) (or p54 p78 p16) (or (not p53) (not p116) (not p26)) (or p66 (not p68) (not p8)) (or p31 (not p71) (not p79)) (or (not p5) (not p45) p16) (or (not p101) (not p24) p18) (or (not p0) p43 p117) (or p111 p105 (not p104)) (or (not p81) (not p94) p76) (or p28 (not p82) (not p4)) (or p55 p5 p89) (or (not p63) (not p51) p41) (or (not p61) (not p118) (not p45)) (or (not p61) p28 (not p67)) (or (not p102) (not p108) p2) (or (not p15) p13 (not p51)) (or p26 p75 (not p40)) (or (not p115) p92 p19) (or p25 (not p85) (not p82)) (or (not p14) (not p15) p45) (or p42 p100 p91) (or p16 (not p9) p38) (or (not p74) (not p65) (not p85)) (or p36 (not p36) p20) (or p33 (not p93) (not p89)) (or p7 p100 p59) (or p104 p49 (not p109)) (or (not p104) p60 (not p56)) (or (not p90) p60 (not p58)) (or (not p116) p106 p53) (or p99 (not p21) p87) (or (not p37) p38 (not p39)) (or (not p2) (not p61) (not p99)) (or (not p4) p86 (not p96)) (or p80 (not p8) (not p66)) (or p95 (not p66) (not p57)) (or (not p60) (not p102) p46) (or (not p47) (not p58) p14) (or (not p87) p74 p100) (or (not p59) p44 (not p84)) (or p80 (not p32) p119) (or (not p74) (not p69) p63) (or p119 p27 (not p72)) (or (not p68) (not p13) p2) (or p1 p99 p92) (or p90 (not p80) p64) (or (not p18) p111 p8) (or (not p1) (not p108) p54) (or (not p12) (not p68) p79) (or (not p35) (not p113) (not p91)) (or p66 p27 (not p2)) (or (not p51) p90 (not p117)) (or p55 (not p5) p41) (or p110 p66 p68) (or p24 p92 p50) (or (not p68) (not p68) p0) (or p76 (not p1) p85) (or p9 (not p44) p60) (or (not p92) p119 p76) (or (not p34) p66 p54) (or p2 p107 (not p110)) (or (not p65) p4 p23) (or (not p102) p97 (not p60)) (or (not p114) (not p84) p96) (or (not p100) (not p26) (not p47)) (or (not p10) p103 p112) (or (not p104) (not p28) p60) (or p49 (not p37) (not p94)) (or (not p2) p91 (not p103)) (or p72 p57 p77) (or p94 p83 (not p49)) (or (not p109) p56 (not p22)) (or p57 p107 (not p6)) (or (not p62) p7 (not p109)) (or p11 p35 (not p50)) (or (not p58) p78 p92) (or p40 (not p119) p64) (or (not p100) (not p62) (not p14)) (or (not p49) (not p16) p54) (or p63 p82 p20) (or (not p89) p73 p19) (or (not p119) p101 p52) (or p100 p72 (not p65)) (or p56 p76 p29) (or (not p49) (not p25) (not p7)) (or p8 p29 p51) (or (not p83) p30 p34) (or p102 p98 (not p55)) (or (not p37) p53 p26) (or (not p30) (not p72) (not p78)) (or p44 p94 p68) (or p114 (not p46) p12) (or p82 p111 p45) (or p88 p102 (not p104)) (or (not p35) (not p8) p55) (or p49 (not p113) p67) (or p40 (not p2) p0) (or (not p3) p28 p8) (or (not p102) (not p4) (not p18)) (or (not p56) (not p84) (not p56)) (or (not p3) (not p24) (not p6)) (or p90 (not p71) (not p35)) (or p88 (not p18) (not p16)) (or (not p64) p0 (not p73)) (or (not p23) p27 p69) (or p4 p61 (not p105)) (or (not p40) p59 (not p19)) (or p68 p108 p12) (or p54 p101 p117) (or p96 p4 p74) (or p70 p9 (not p57)) (or (not p94) (not p20) p4) (or p15 p79 (not p51)) (or (not p107) (not p11) p10) (or p17 p110 p10) (or p81 (not p65) (not p9)) (or (not p85) p18 p9) (or (not p2) p53 p15) (or (not p87) (not p36) (not p99)) (or p24 p11 (not p54)) (or p58 p13 p61) (or p68 p46 p100) (or p10 p66 (not p34)) (or p29 p116 (not p60)) (or p63 (not p44) p76) (or (not p79) p85 p6) (or (not p91) (not p78) p45) (or (not p38) (not p30) p21) (or p11 (not p96) p81) (or (not p19) (not p105) (not p99)) (or (not p62) p116 (not p49)) (or p73 (not p37) (not p53)) (or p12 p1 (not p31)) (or p11 p72 p99) (or (not p50) (not p2) p4) (or (not p87) p8 (not p66)) (or (not p109) p37 (not p96)) (or (not p16) p18 (not p0)) (or (not p19) p6 (not p24)) (or p70 p1 p108) (or (not p38) (not p99) (not p47)) (or p97 (not p43) (not p63)) (or p69 p62 (not p29)) (or (not p40) p68 p95) (or p113 (not p33) (not p97)) (or (not p109) p30 p65) (or (not p23) (not p99) p65) (or p41 p4 (not p29)) (or (not p47) p77 (not p12)) (or p9 p39 p115) (or (not p97) (not p98) p103) (or (not p29) (not p98) (not p8)) (or (not p86) p12 (not p90)) (or (not p69) p48 p42) (or p35 p55 (not p57)) (or (not p111) p71 (not p84)) (or (not p13) p61 p21) (or (not p17) p101 (not p35)) (or p84 p95 p2) (or p20 p25 p74) (or (not p55) (not p105) (not p103)) (or (not p29) p74 (not p62)) (or p28 (not p89) (not p20)) (or (not p95) (not p82) p80) (or (not p105) p58 p30) (or p55 p105 p11) (or (not p7) p16 p75) (or (not p48) (not p28) p117) (or (not p89) (not p28) (not p26)) (or p69 p113 (not p93)) (or (not p78) (not p41) (not p117)) (or p13 p90 p18) (or (not p84) (not p68) p35) (or (not p115) p25 p107) (or p82 (not p4) (not p86)) (or p90 (not p112) (not p52)) (or (not p27) p107 (not p66)) (or p95 p12 p70) (or (not p72) (not p50) (not p59)) (or (not p84) (not p43) (not p45)) (or (not p106) (not p95) (not p3)) (or p8 (not p46) p45) (or (not p92) (not p91) (not p91)) (or p73 p35 p66) (or p37 (not p62) p92) (or (not p54) (not p12) p52) (or (not p108) (not p57) (not p29)) (or p2 p101 p6) (or p72 p96 (not p54)) (or (not p90) (not p9) p67) (or (not p65) p38 p34) (or p113 (not p45) (not p37)) (or (not p74) p48 (not p46)) (or (not p78) p91 p20) (or (not p108) p37 (not p96)) (or (not p39) (not p41) (not p12)) (or p102 p46 p111) (or p16 (not p21) (not p93)) (or (not p107) (not p88) p48) (or (not p14) (not p81) (not p45)) (or (not p95) (not p76) p111) (or (not p89) p48 p76) (or (not p78) p102 p92) (or p53 p43 (not p88)) (or (not p78) (not p83) p100) (or p26 (not p74) (not p104)) (or (not p83) (not p47) (not p0)) (or (not p1) p75 p52) (or (not p1) (not p98) p9) (or (not p118) p32 p116) (or (not p1) (not p103) (not p28)) (or p79 (not p112) p37) (or (not p115) (not p42) (not p106)) (or p27 p87 (not p79)) (or p109 p12 p115) (or p55 p50 p7) (or (not p11) p24 (not p96)) (or (not p42) p85 p47) (or p103 (not p77) (not p91)) (or (not p5) (not p112) (not p0)) (or (not p91) p87 p114) (or p31 (not p21) (not p12)) (or (not p15) (not p39) p17) (or (not p8) (not p78) p34) (or p87 (not p17) (not p105)) (or (not p26) p65 (not p41)) (or p10 (not p22) p96) (or (not p93) (not p76) (not p103)) (or (not p78) p51 p119) (or (not p52) (not p17) (not p30)) (or (not p91) p53 (not p62)) (or (not p5) p10 p23) (or (not p113) (not p82) (not p45)) (or p6 p1 (not p17)) (or (not p103) (not p43) (not p43)) (or p105 p7 p92) (or (not p102) p46 p22) (or p59 (not p81) p99) (or (not p33) p59 (not p47)) (or (not p87) p82 p78) (or (not p32) (not p113) (not p108)) (or (not p6) (not p110) p31) (or p70 (not p110) (not p111)) (or (not p30) p16 p49) (or p77 (not p19) p69) (or p62 (not p85) (not p93)) (or (not p7) (not p73) p91) (or p29 p52 p12) (or p69 p93 p10) (or (not p39) (not p46) p117) (or (not p113) p118 (not p102)) (or (not p106) p93 (not p60)) (or p59 p56 p29) (or p43 p46 p8) (or p1 p16 (not p67)) (or (not p69) (not p73) p38) (or p50 p97 p21) (or (not p101) p86 p1) (or (not p105) (not p95) (not p73)) (or (not p28) (not p103) (not p51)) (or (not p86) (not p99) p80) (or (not p86) p89 (not p73)) (or p34 (not p60) (not p11)) (or (not p40) p43 p110) (or (not p68) (not p82) (not p62)) (or (not p41) p50 p32) (or p61 (not p83) p46) (or p78 (not p3) p48) (or (not p88) (not p7) (not p45)) (or p33 p107 (not p40)) (or p82 p75 p39) (or p2 (not p47) p84) (or p115 p76 p4) (or p67 p9 (not p83)) (or (not p3) p60 p72) (or p100 p70 p37) (or (not p38) p70 (not p112)) (or p110 (not p117) (not p85)) (or p86 (not p45) (not p87)) (or p78 (not p84) (not p84)) (or p53 (not p26) p109) (or p23 (not p5) p109) (or p62 p15 (not p3)) (or p29 (not p55) (not p24)) (or p92 p109 p115) (or p10 p72 (not p85)) (or p44 (not p51) p28) (or p12 p9 p69) (or (not p7) (not p115) (not p118)) (or (not p99) p15 (not p41)) (or p111 p52 p110) (or (not p8) (not p96) p118) (or (not p74) (not p108) (not p48)) (or p34 (not p40) (not p20)) (or (not p36) p25 p25) (or p37 p57 (not p70)) (or (not p117) (not p110) (not p118)) (or p93 (not p118) (not p86)) (or p44 p97 p48) (or (not p31) p68 p42) (or (not p26) (not p11) (not p117)) (or (not p96) (not p107) (not p10)) (or p105 p20 (not p92)) (or (not p60) p88 (not p114)) (or p101 (not p72) (not p40)) (or (not p24) p71 p13) (or p28 (not p99) p108) (or (not p22) p0 (not p70)) (or (not p24) p79 (not p95)) (or (not p38) p34 (not p17)) (or (not p7) (not p101) (not p67)) (or p94 p110 p20) (or (not p113) p113 p6) (or p95 (not p101) p80) (or p89 p86 p85) (or p115 p60 (not p86)) (or p25 (not p51) p112) (or p56 p62 (not p13)) (or p51 (not p13) p55) (or p33 p18 (not p82)) (or (not p83) (not p68) p79) (or (not p23) p17 p68) (or p62 p1 (not p43)) (or (not p38) p57 (not p59)) (or (not p85) p40 (not p50)) (or p69 (not p59) p73) (or (not p54) p95 p101) (or (not p95) (not p47) p93) (or (not p7) (not p76) p19) (or p16 p57 p46) (or p8 (not p92) (not p5)) (or p97 (not p107) (not p28)) (or p110 (not p22) (not p82)) (or (not p85) p118 (not p31)) (or (not p99) p26 (not p57)) (or (not p99) p25 p101) (or p100 (not p41) p90) (or (not p26) p3 p96) (or p85 p41 p102) (or p7 (not p96) (not p46)) (or (not p23) p41 (not p95)) (or p18 (not p49) p111) (or (not p29) p84 (not p74)) (or (not p41) (not p119) p32) (or p116 (not p89) (not p1)) (or (not p83) (not p73) (not p68)) (or (not p112) (not p70) (not p65)) (or (not p88) (not p22) p76) (or (not p23) (not p38) p113) (or p26 (not p100) p76) (or (not p58) (not p73) p82) (or (not p56) p16 (not p90)) (or p80 p103 (not p21)) (or p118 p6 p86) (or (not p11) p58 p5) (or (not p41) (not p119) p46) (or p60 (not p4) (not p90)) (or (not p26) (not p61) (not p93)) (or p68 (not p35) p91) (or (not p106) p17 (not p116)) (or (not p46) (not p48) p14) (or p108 (not p54) p109) (or p60 (not p37) (not p82)) (or p119 (not p63) (not p108)) (or (not p24) p108 p41) (or (not p115) p56 (not p9)) (or p51 p16 (not p68)) (or (not p9) p12 p33) (or (not p115) (not p9) p79) (or (not p5) p1 p48) (or (not p106) (not p89) (not p18)) (or (not p92) (not p59) (not p98)) (or (not p64) (not p10) p18) (or p71 p13 (not p41)) (or p12 (not p72) p2) (or p43 (not p33) p3) (or p98 (not p12) (not p9)) (or (not p118) p7 (not p92)) (or (not p70) (not p20) (not p34)) (or p63 p10 p69) (or p97 p42 (not p104)) (or p75 p80 p40) (or (not p70) (not p4) p39) (or p93 p8 p96) (or (not p84) p73 p116) (or (not p76) (not p12) (not p27)) (or (not p74) p12 (not p103)) (or p55 p78 p82) (or p74 p100 p37) (or p61 p10 (not p4)) (or p88 (not p96) (not p71)) (or p74 (not p27) p114) (or (not p38) (not p37) p118) (or p46 (not p67) (not p37)) (or (not p46) p1 (not p50)) (or p86 (not p98) (not p109)) (or p110 (not p89) (not p84)) (or p70 p12 (not p69)) (or (not p93) (not p67) (not p39)) (or p28 p111 (not p113)) (or p95 p31 (not p82)) (or (not p117) (not p93) (not p50)) (or p103 (not p95) p13) (or p72 (not p37) p6) (or p71 p85 (not p38)) (or (not p32) (not p11) (not p43)) (or p105 (not p99) p13) (or p88 p82 p81) (or p87 (not p78) p43) (or (not p62) (not p66) p36) (or (not p78) (not p34) p60) (or (not p52) (not p36) p36) (or (not p28) (not p91) p27) (or (not p119) p115 p91) (or p114 p42 (not p108)) (or p92 (not p77) p113) (or p114 (not p77) p63) (or (not p45) (not p21) (not p0)) (or (not p16) (not p73) p77) (or (not p17) p74 p117) (or p100 p116 (not p37)) (or (not p67) (not p112) p82) (or p17 p36 (not p61)) (or p11 (not p18) p88) (or (not p51) p15 (not p5)) (or p1 (not p91) (not p92)) (or (not p0) (not p77) p17) (or p41 (not p10) (not p82)) (or p18 (not p105) (not p97)) (or p34 p102 (not p31)) (or p78 p62 p23) (or p14 p37 (not p33)) (or (not p82) (not p116) (not p104)) (or p62 (not p75) (not p33)) (or p7 p63 p42) (or p48 p1 p39) (or p96 p69 p110) (or (not p73) p87 p99) (or (not p24) (not p65) (not p89)) (or (not p20) (not p38) p119) (or (not p71) (not p43) (not p11)) (or (not p29) (not p94) (not p57)) (or (not p46) (not p22) p108) (or (not p92) (not p111) (not p31)) (or (not p28) p101 (not p21)) (or (not p107) (not p67) (not p34)) (or (not p91) p78 (not p115)) (or p34 (not p11) (not p8)) (or p101 (not p111) (not p27)) (or p68 p79 p48) (or (not p55) p87 (not p4)) (or (not p5) p38 p50) (or p14 (not p8) p48) (or (not p6) p8 p74) (or p0 p25 (not p41)) (or (not p41) (not p105) (not p45)) (or p17 (not p3) (not p0)) (or p83 (not p2) p77) (or (not p16) p51 p12) (or (not p5) (not p57) (not p105)) (or (not p16) (not p112) (not p83)) (or p76 (not p67) p58) (or p26 (not p54) (not p73)) (or (not p45) (not p51) (not p102)) (or (not p50) (not p94) (not p61)) (or (not p67) (not p31) (not p97)) (or (not p64) p6 (not p30)) (or p96 p108 (not p95)) (or (not p118) p16 (not p86)) (or p6 p20 (not p51)) (or (not p76) (not p79) p104) (or (not p51) p103 (not p41)) (or p103 p96 (not p36)) (or (not p96) (not p55) p22) (or (not p64) p75 (not p77)) (or (not p3) p97 p33) (or p52 p44 (not p26)) (or (not p98) (not p12) p33) (or (not p76) (not p101) (not p1)) (or (not p81) p55 (not p50)) (or p84 p92 (not p51)) (or p78 p116 p15) (or p60 p65 p16) (or p31 (not p55) p5) (or p12 p116 p48) (or p44 p8 (not p73)) (or p27 (not p75) p15) (or (not p48) p116 (not p91)) (or (not p37) (not p84) p91) (or p110 p100 p117) (or (not p32) p1 p111) (or p69 p59 (not p37)) (or (not p54) (not p58) p78) (or p15 p119 (not p83)) (or (not p67) p95 p71))
)
(check-sat)
(get-model)
